<number of tasks>
100

<cycle time>
1000

<order strength>
0.6


<task times>
1 584
2 513
3 383
4 275
5 432
6 548
7 531
8 627
9 589
10 457
11 473
12 352
13 496
14 327
15 404
16 388
17 567
18 705
19 481
20 531
21 489
22 730
23 471
24 807
25 561
26 240
27 567
28 510
29 524
30 588
31 285
32 302
33 384
34 513
35 372
36 258
37 570
38 495
39 622
40 258
41 453
42 451
43 465
44 325
45 352
46 386
47 575
48 454
49 693
50 339
51 715
52 384
53 718
54 472
55 446
56 334
57 773
58 366
59 619
60 538
61 542
62 473
63 310
64 389
65 439
66 448
67 490
68 590
69 563
70 340
71 566
72 536
73 472
74 546
75 262
76 408
77 541
78 450
79 501
80 647
81 547
82 531
83 374
84 616
85 491
86 340
87 434
88 500
89 279
90 609
91 405
92 462
93 580
94 362
95 738
96 322
97 426
98 560
99 582
100 458

<precedence relations>
1,60
2,15
3,15
4,15
5,15
6,15
7,10
7,11
7,12
7,13
8,9
8,14
9,60
10,15
11,15
12,46
13,17
13,19
14,16
14,18
15,20
15,21
15,22
15,23
15,24
15,25
15,26
15,27
15,28
16,46
17,46
18,28
19,28
20,30
21,75
22,29
23,37
24,32
24,76
25,33
25,61
26,36
26,39
26,40
26,61
27,29
27,33
27,37
28,31
29,32
29,39
29,61
29,86
30,32
30,33
30,34
31,34
32,74
33,38
34,35
34,36
34,37
35,46
36,46
37,39
37,40
37,42
37,43
38,41
39,87
40,74
41,46
42,46
43,44
43,45
43,47
43,48
44,74
45,74
46,49
46,51
46,52
46,53
46,54
46,55
46,56
46,57
46,58
47,50
48,50
48,59
49,60
50,60
51,87
54,80
55,63
56,62
56,78
57,62
59,61
59,63
59,73
60,64
60,65
60,66
60,67
60,68
60,69
60,70
60,71
60,72
60,73
61,87
62,74
64,74
65,75
66,75
66,99
68,76
68,80
68,98
69,89
71,77
71,78
72,78
74,81
74,82
74,83
74,84
74,85
75,86
77,79
77,88
77,98
78,79
78,80
78,86
79,87
80,87
82,87
82,89
82,90
86,88
87,91
87,92
87,93
87,94
87,95
87,96
87,97
89,98
92,99
93,99
93,100
95,99

<end>
